06_week/pr6_2.sol
# Solution for model pr6_2
# Objective value = 7577
X[0,0] 0
X[0,1] 0
X[0,2] 1
X[0,3] 0
X[0,4] 0
X[0,5] 0
X[0,6] 0
X[0,7] 0
X[0,8] 0
X[0,9] 0
X[0,10] 0
X[0,11] 0
X[1,0] 0
X[1,1] 0
X[1,2] 0
X[1,3] 0
X[1,4] 0
X[1,5] 0
X[1,6] 0
X[1,7] 0
X[1,8] 0
X[1,9] 1
X[1,10] 0
X[1,11] 0
X[2,0] 0
X[2,1] 0
X[2,2] 0
X[2,3] 0
X[2,4] 0
X[2,5] 0
X[2,6] 0
X[2,7] 0
X[2,8] 1
X[2,9] 0
X[2,10] 0
X[2,11] 0
X[3,0] 1
X[3,1] 0
X[3,2] 0
X[3,3] 0
X[3,4] 0
X[3,5] 0
X[3,6] 0
X[3,7] 0
X[3,8] 0
X[3,9] 0
X[3,10] 0
X[3,11] 0
X[4,0] 0
X[4,1] 0
X[4,2] 0
X[4,3] 0
X[4,4] 0
X[4,5] 0
X[4,6] 0
X[4,7] 0
X[4,8] 0
X[4,9] 0
X[4,10] 1
X[4,11] 0
X[5,0] 0
X[5,1] 1
X[5,2] 0
X[5,3] 0
X[5,4] 0
X[5,5] 0
X[5,6] 0
X[5,7] 0
X[5,8] 0
X[5,9] 0
X[5,10] 0
X[5,11] 0
X[6,0] 0
X[6,1] 0
X[6,2] 0
X[6,3] 0
X[6,4] 0
X[6,5] 1
X[6,6] 0
X[6,7] 0
X[6,8] 0
X[6,9] 0
X[6,10] 0
X[6,11] 0
X[7,0] 0
X[7,1] 0
X[7,2] 0
X[7,3] 0
X[7,4] 0
X[7,5] 0
X[7,6] 1
X[7,7] 0
X[7,8] 0
X[7,9] 0
X[7,10] 0
X[7,11] 0
X[8,0] 0
X[8,1] 0
X[8,2] 0
X[8,3] 0
X[8,4] 0
X[8,5] 0
X[8,6] 0
X[8,7] 1
X[8,8] 0
X[8,9] 0
X[8,10] 0
X[8,11] 0
X[9,0] 0
X[9,1] 0
X[9,2] 0
X[9,3] 0
X[9,4] 0
X[9,5] 0
X[9,6] 0
X[9,7] 0
X[9,8] 0
X[9,9] 0
X[9,10] 0
X[9,11] 1
X[10,0] 0
X[10,1] 0
X[10,2] 0
X[10,3] 1
X[10,4] 0
X[10,5] 0
X[10,6] 0
X[10,7] 0
X[10,8] 0
X[10,9] 0
X[10,10] 0
X[10,11] 0
X[11,0] 0
X[11,1] 0
X[11,2] 0
X[11,3] 0
X[11,4] 1
X[11,5] 0
X[11,6] 0
X[11,7] 0
X[11,8] 0
X[11,9] 0
X[11,10] 0
X[11,11] 0
U[0] 0
U[1] 6
U[2] 1
U[3] 11
U[4] 9
U[5] 5
U[6] 4
U[7] 3
U[8] 2
U[9] 7
U[10] 10
U[11] 8
